57 63
63 63
13 28
20 78
10 30
40 17
36 131
3 178
94 42
92 48
43 1
19 24
49 77
17 88
39 57
63 23
9 181
85 50
70 30
8 81
2 103
11 129
15 90
3 71
4 29
13 96
66 12
18 20
33 45
3 193
24 35
43 48
30 29
4 33
82 40
56 72
21 103
35 36
30 118
40 25
74 37
5 13
30 98
7 127
65 87
87 32
45 78
90 3
21 147
38 20
